NAME: ACTUAL_TOURS/amz0256
TYPE: TOUR
COMMENT: RouteID_1a029a8b-c734-4f25-a434-e2e1f678db70
DIMENSION: 186
TOUR_SECTION
102
48
92
178
120
39
170
148
163
99
27
52
25
1
77
119
56
98
100
50
184
4
183
143
17
147
18
93
76
44
144
127
85
49
182
106
47
94
62
28
89
29
12
154
176
33
24
179
22
45
172
26
185
157
140
51
161
109
126
181
167
20
177
8
158
111
60
186
130
115
81
164
160
72
23
58
162
36
121
113
137
124
97
38
128
141
46
112
13
139
82
159
69
136
57
88
180
31
96
142
73
168
117
171
146
87
78
135
108
132
123
90
169
118
152
65
83
67
16
150
165
6
55
80
105
53
64
9
3
75
95
138
66
107
41
156
174
86
63
122
30
153
79
114
11
5
43
35
116
110
129
101
145
173
133
61
71
14
103
68
70
2
21
149
84
34
155
40
54
131
125
59
91
151
166
134
74
15
7
19
175
10
104
42
37
32
-1
EOF
